Geographic Exponential Decay
40 100 154 160 140 49 73 39 236 159 91 277 153 121 53 89 245 219 119 104 222 58 79 98 296 237 264 31 129 64 26 163 54 288 76 301 306 66 82 298 171
p edge 320 1279
e 0 232 1.0
e 1 228 4.0
e 2 203 1.0
e 3 206 2.0
e 4 49 10.0
e 4 252 4.0
e 5 112 2.0
e 6 68 1.0
e 7 114 2.0
e 7 167 4.0
e 7 266 2.0
e 7 65 12.0
e 8 157 2.0
e 9 273 2.0
e 10 22 9.0
e 11 225 3.0
e 11 291 10.0
e 11 264 25.0
e 11 26 71.0
e 12 263 4.0
e 12 74 4.0
e 13 95 1.0
e 14 75 46.0
e 14 199 3.0
e 14 280 11.0
e 14 17 4.0
e 15 285 1.0
e 16 225 1.0
e 18 234 3.0
e 18 284 24.0
e 18 124 12.0
e 18 190 6.0
e 18 127 18.0
e 18 178 21.0
e 18 100 47.0
e 19 168 4.0
e 19 242 5.0
e 20 217 1.0
e 21 28 4.0
e 21 284 5.0
e 22 75 37.0
e 22 250 19.0
e 22 156 12.0
e 22 276 1.0
e 22 100 10.0
e 22 186 22.0
e 22 44 20.0
e 22 177 45.0
e 22 154 33.0
e 22 279 31.0
e 22 245 4.0
e 22 52 30.0
e 22 206 27.0
e 23 252 1.0
e 24 17 1.0
e 25 291 3.0
e 26 151 92.0
e 26 47 77.0
e 26 271 1.0
e 26 240 1.0
e 26 148 35.0
e 26 241 22.0
e 26 75 67.0
e 26 182 58.0
e 26 310 39.0
e 26 54 75.0
e 26 208 6.0
e 26 189 41.0
e 26 191 21.0
e 26 121 26.0
e 26 28 98.0
e 26 32 75.0
e 26 169 91.0
e 26 190 76.0
e 26 81 4.0
e 26 315 40.0
e 26 72 78.0
e 26 179 46.0
e 26 233 1.0
e 26 102 1.0
e 26 25 56.0
e 26 309 33.0
e 27 63 8.0
e 27 196 7.0
e 27 251 1.0
e 27 75 4.0
e 27 38 2.0
e 27 268 20.0
e 27 288 97.0
e 28 242 3.0
e 28 167 4.0
e 29 159 66.0
e 30 110 7.0
e 30 137 1.0
e 31 109 60.0
e 31 42 63.0
e 31 65 55.0
e 31 170 35.0
e 31 230 67.0
e 31 14 59.0
e 31 43 66.0
e 31 301 98.0
e 31 300 1.0
e 31 123 99.0
e 31 112 35.0
e 31 188 32.0
e 31 92 54.0
e 31 179 47.0
e 31 228 20.0
e 31 137 72.0
e 31 114 91.0
e 31 264 5.0
e 31 25 93.0
e 31 237 3.0
e 31 12 30.0
e 31 154 87.0
e 31 50 26.0
e 31 91 7.0
e 31 40 35.0
e 31 51 32.0
e 31 245 98.0
e 33 243 2.0
e 34 184 3.0
e 34 95 1.0
e 34 280 9.0
e 34 8 4.0
e 35 9 1.0
e 36 76 91.0
e 37 179 1.0
e 39 202 63.0
e 39 95 14.0
e 39 90 90.0
e 39 241 20.0
e 39 99 38.0
e 39 48 90.0
e 39 107 66.0
e 39 284 60.0
e 39 106 27.0
e 39 221 86.0
e 39 216 22.0
e 39 287 56.0
e 39 52 60.0
e 39 149 36.0
e 39 257 18.0
e 39 170 15.0
e 39 212 68.0
e 39 13 78.0
e 39 285 76.0
e 39 299 96.0
e 39 264 42.0
e 39 245 58.0
e 39 271 28.0
e 39 30 67.0
e 39 120 17.0
e 39 66 23.0
e 39 294 61.0
e 41 29 2.0
e 41 249 3.0
e 45 176 21.0
e 46 57 7.0
e 48 87 11.0
e 48 2 10.0
e 48 311 9.0
e 48 230 1.0
e 48 66 74.0
e 48 170 16.0
e 49 136 38.0
e 49 194 66.0
e 49 137 39.0
e 49 71 44.0
e 49 141 53.0
e 49 298 84.0
e 49 296 59.0
e 49 78 6.0
e 49 79 13.0
e 49 279 35.0
e 49 176 22.0
e 49 32 29.0
e 49 135 20.0
e 49 241 8.0
e 49 105 84.0
e 49 20 48.0
e 49 264 81.0
e 49 50 70.0
e 49 227 59.0
e 49 21 98.0
e 49 55 94.0
e 49 257 18.0
e 49 187 35.0
e 49 289 19.0
e 49 87 98.0
e 49 6 41.0
e 50 257 5.0
e 50 77 3.0
e 51 66 49.0
e 51 86 4.0
e 51 208 1.0
e 51 307 10.0
e 51 209 4.0
e 51 128 23.0
e 53 78 74.0
e 53 16 78.0
e 53 219 70.0
e 53 153 66.0
e 53 170 18.0
e 53 260 70.0
e 53 261 88.0
e 53 79 61.0
e 53 99 18.0
e 53 84 99.0
e 53 213 53.0
e 53 226 55.0
e 53 242 23.0
e 53 29 4.0
e 53 138 18.0
e 53 156 17.0
e 53 272 90.0
e 53 95 80.0
e 53 48 96.0
e 53 59 14.0
e 53 17 94.0
e 53 194 43.0
e 53 30 100.0
e 53 199 91.0
e 53 304 8.0
e 53 93 5.0
e 53 243 92.0
e 54 306 74.0
e 54 267 50.0
e 54 179 86.0
e 54 302 4.0
e 54 94 44.0
e 54 199 79.0
e 54 77 30.0
e 54 80 54.0
e 54 61 62.0
e 54 62 6.0
e 54 156 39.0
e 54 232 92.0
e 54 265 55.0
e 54 108 67.0
e 54 160 58.0
e 54 240 88.0
e 54 41 72.0
e 54 178 81.0
e 54 81 37.0
e 54 30 27.0
e 54 252 96.0
e 54 307 91.0
e 54 111 1.0
e 54 271 26.0
e 54 303 41.0
e 54 172 38.0
e 55 22 11.0
e 55 143 1.0
e 55 211 1.0
e 56 110 3.0
e 57 259 21.0
e 57 20 20.0
e 57 208 17.0
e 57 107 10.0
e 57 170 21.0
e 57 130 15.0
e 58 60 95.0
e 58 216 96.0
e 58 36 94.0
e 58 168 96.0
e 58 255 42.0
e 58 127 64.0
e 58 271 76.0
e 58 91 4.0
e 58 102 54.0
e 58 228 29.0
e 58 183 28.0
e 58 148 66.0
e 58 126 30.0
e 58 158 61.0
e 58 206 27.0
e 58 93 93.0
e 58 120 2.0
e 58 225 3.0
e 58 176 49.0
e 58 154 33.0
e 58 108 40.0
e 58 54 71.0
e 58 105 71.0
e 58 1 37.0
e 58 170 78.0
e 58 280 6.0
e 58 281 54.0
e 60 228 5.0
e 60 63 4.0
e 60 175 11.0
e 61 115 2.0
e 62 117 6.0
e 64 304 39.0
e 64 93 62.0
e 64 272 69.0
e 64 190 23.0
e 64 62 97.0
e 64 188 4.0
e 64 302 39.0
e 64 12 13.0
e 64 209 80.0
e 64 276 34.0
e 64 291 77.0
e 64 147 12.0
e 64 305 59.0
e 64 238 19.0
e 64 112 7.0
e 64 43 32.0
e 64 98 78.0
e 64 309 22.0
e 64 211 35.0
e 64 306 4.0
e 64 249 6.0
e 64 116 100.0
e 64 240 8.0
e 64 164 5.0
e 64 286 89.0
e 64 192 10.0
e 64 36 49.0
e 66 158 45.0
e 66 201 20.0
e 66 240 16.0
e 66 164 30.0
e 66 77 51.0
e 66 57 75.0
e 66 185 84.0
e 66 148 54.0
e 66 220 36.0
e 66 314 81.0
e 66 37 9.0
e 66 133 75.0
e 66 49 51.0
e 66 289 28.0
e 66 101 60.0
e 66 255 5.0
e 66 36 22.0
e 66 81 59.0
e 66 136 28.0
e 66 168 90.0
e 66 293 13.0
e 66 68 1.0
e 66 79 66.0
e 66 217 17.0
e 67 132 2.0
e 69 160 55.0
e 69 39 84.0
e 70 18 24.0
e 73 24 55.0
e 73 279 70.0
e 73 54 97.0
e 73 82 46.0
e 73 159 21.0
e 73 49 60.0
e 73 193 57.0
e 73 294 39.0
e 73 71 54.0
e 73 206 3.0
e 73 143 47.0
e 73 42 40.0
e 73 280 87.0
e 73 174 36.0
e 73 296 27.0
e 73 105 69.0
e 73 199 64.0
e 73 19 23.0
e 73 316 66.0
e 73 300 44.0
e 73 116 22.0
e 73 45 98.0
e 73 283 72.0
e 73 293 41.0
e 73 14 23.0
e 73 308 19.0
e 73 133 46.0
e 74 5 3.0
e 75 182 37.0
e 75 89 61.0
e 75 41 15.0
e 75 207 22.0
e 75 273 47.0
e 75 248 19.0
e 75 29 43.0
e 75 7 32.0
e 75 285 22.0
e 75 293 20.0
e 76 210 62.0
e 76 128 45.0
e 76 98 49.0
e 76 177 68.0
e 76 97 29.0
e 76 267 7.0
e 76 161 38.0
e 76 122 22.0
e 76 192 54.0
e 76 100 73.0
e 76 17 57.0
e 76 205 35.0
e 76 164 50.0
e 76 308 79.0
e 76 148 6.0
e 76 162 47.0
e 76 290 74.0
e 76 160 1.0
e 76 84 4.0
e 76 247 11.0
e 76 306 2.0
e 76 182 94.0
e 76 311 89.0
e 76 11 11.0
e 76 191 28.0
e 76 248 40.0
e 78 178 4.0
e 78 276 4.0
e 79 71 35.0
e 79 148 35.0
e 79 219 71.0
e 79 50 59.0
e 79 109 16.0
e 79 181 49.0
e 79 245 29.0
e 79 37 42.0
e 79 286 2.0
e 79 43 49.0
e 79 141 46.0
e 79 289 79.0
e 79 251 31.0
e 79 20 61.0
e 79 179 58.0
e 79 193 29.0
e 79 116 9.0
e 79 292 65.0
e 79 100 66.0
e 79 5 94.0
e 79 309 64.0
e 79 78 58.0
e 79 178 24.0
e 79 285 88.0
e 82 43 82.0
e 82 143 99.0
e 82 29 43.0
e 82 46 64.0
e 82 205 84.0
e 82 230 30.0
e 82 238 95.0
e 82 209 21.0
e 82 9 7.0
e 82 308 34.0
e 82 155 37.0
e 82 45 74.0
e 82 3 10.0
e 82 207 8.0
e 82 202 46.0
e 82 295 77.0
e 82 106 51.0
e 82 255 31.0
e 82 245 18.0
e 82 83 2.0
e 82 91 43.0
e 82 253 100.0
e 82 87 38.0
e 82 208 4.0
e 82 225 2.0
e 82 121 32.0
e 85 112 6.0
e 85 249 2.0
e 88 242 1.0
e 89 8 54.0
e 89 93 76.0
e 89 113 94.0
e 89 107 11.0
e 89 273 74.0
e 89 4 28.0
e 89 208 99.0
e 89 112 45.0
e 89 32 14.0
e 89 153 96.0
e 89 179 27.0
e 89 247 86.0
e 89 235 87.0
e 89 311 18.0
e 89 169 46.0
e 89 119 39.0
e 89 57 73.0
e 89 315 41.0
e 89 124 94.0
e 89 56 29.0
e 89 196 10.0
e 89 102 88.0
e 89 278 68.0
e 89 73 56.0
e 89 128 16.0
e 89 199 57.0
e 91 50 89.0
e 91 16 98.0
e 91 89 36.0
e 91 37 11.0
e 91 253 91.0
e 91 242 25.0
e 91 83 80.0
e 91 150 80.0
e 91 296 95.0
e 91 11 7.0
e 91 22 46.0
e 91 202 20.0
e 91 270 96.0
e 91 229 79.0
e 91 183 61.0
e 91 163 87.0
e 91 236 11.0
e 91 156 37.0
e 91 291 85.0
e 91 310 56.0
e 91 146 24.0
e 91 220 50.0
e 91 69 55.0
e 91 74 36.0
e 92 75 48.0
e 94 132 5.0
e 96 138 1.0
e 96 83 4.0
e 98 216 14.0
e 98 295 62.0
e 98 190 49.0
e 98 279 97.0
e 98 294 93.0
e 98 316 19.0
e 98 191 23.0
e 98 300 6.0
e 98 289 88.0
e 98 143 65.0
e 98 32 8.0
e 98 153 60.0
e 98 178 40.0
e 98 181 91.0
e 98 274 25.0
e 98 139 45.0
e 98 235 95.0
e 98 195 3.0
e 98 95 83.0
e 98 270 30.0
e 98 105 39.0
e 98 273 33.0
e 98 162 91.0
e 98 93 29.0
e 98 148 79.0
e 100 234 76.0
e 100 131 17.0
e 100 59 79.0
e 100 17 57.0
e 100 54 28.0
e 100 97 6.0
e 100 176 80.0
e 100 261 35.0
e 100 229 96.0
e 100 20 43.0
e 100 57 11.0
e 100 260 33.0
e 100 118 39.0
e 100 263 82.0
e 100 120 45.0
e 100 101 82.0
e 100 163 46.0
e 100 102 50.0
e 100 203 21.0
e 100 95 5.0
e 100 177 28.0
e 100 103 36.0
e 100 136 54.0
e 104 79 28.0
e 104 205 29.0
e 104 34 45.0
e 104 43 21.0
e 104 271 67.0
e 104 272 22.0
e 104 98 25.0
e 104 140 38.0
e 104 234 14.0
e 104 29 60.0
e 104 218 16.0
e 104 261 95.0
e 104 209 27.0
e 104 89 15.0
e 104 185 48.0
e 104 259 14.0
e 104 189 68.0
e 104 309 13.0
e 104 288 39.0
e 104 141 60.0
e 104 76 90.0
e 104 273 18.0
e 104 310 40.0
e 104 230 18.0
e 104 73 2.0
e 104 0 3.0
e 104 17 7.0
e 107 294 1.0
e 107 211 14.0
e 107 40 19.0
e 107 162 3.0
e 110 220 25.0
e 110 194 12.0
e 110 111 18.0
e 110 274 17.0
e 110 36 1.0
e 111 97 22.0
e 111 112 1.0
e 111 194 11.0
e 111 264 58.0
e 111 174 35.0
e 115 96 8.0
e 115 14 6.0
e 115 44 4.0
e 118 233 14.0
e 118 192 30.0
e 118 36 8.0
e 118 117 20.0
e 118 303 23.0
e 118 93 9.0
e 119 150 60.0
e 119 245 16.0
e 119 55 4.0
e 119 218 91.0
e 119 299 5.0
e 119 84 99.0
e 119 110 11.0
e 119 80 3.0
e 119 200 44.0
e 119 263 49.0
e 119 300 1.0
e 119 28 36.0
e 119 46 1.0
e 119 239 60.0
e 119 52 63.0
e 119 301 14.0
e 119 19 87.0
e 119 285 79.0
e 119 264 83.0
e 119 248 65.0
e 119 76 100.0
e 119 265 92.0
e 119 221 54.0
e 119 313 60.0
e 119 211 17.0
e 119 132 62.0
e 120 221 6.0
e 121 287 35.0
e 121 6 60.0
e 121 219 64.0
e 121 281 80.0
e 121 183 77.0
e 121 55 60.0
e 121 230 5.0
e 121 10 85.0
e 121 231 23.0
e 121 268 11.0
e 121 220 57.0
e 121 181 54.0
e 121 109 31.0
e 121 172 34.0
e 121 221 40.0
e 121 159 7.0
e 121 92 12.0
e 121 257 18.0
e 121 170 1.0
e 121 222 69.0
e 121 144 9.0
e 121 14 11.0
e 121 295 78.0
e 121 216 18.0
e 121 138 83.0
e 122 132 6.0
e 122 201 12.0
e 122 256 20.0
e 122 137 12.0
e 122 129 4.0
e 122 269 18.0
e 125 154 78.0
e 127 241 9.0
e 127 299 1.0
e 128 10 10.0
e 129 312 77.0
e 129 105 5.0
e 129 82 30.0
e 129 268 89.0
e 129 36 33.0
e 129 30 7.0
e 129 213 14.0
e 129 47 5.0
e 129 258 67.0
e 129 106 94.0
e 129 64 32.0
e 129 173 38.0
e 129 232 62.0
e 129 77 59.0
e 129 145 86.0
e 129 51 58.0
e 129 45 73.0
e 129 216 9.0
e 129 257 2.0
e 129 165 47.0
e 129 148 11.0
e 129 262 14.0
e 129 66 26.0
e 129 110 94.0
e 129 88 83.0
e 129 190 55.0
e 130 227 1.0
e 131 185 4.0
e 133 282 13.0
e 133 17 1.0
e 134 164 8.0
e 134 158 2.0
e 134 304 10.0
e 134 35 9.0
e 138 95 5.0
e 140 285 40.0
e 140 261 83.0
e 140 141 19.0
e 140 75 68.0
e 140 267 57.0
e 140 233 97.0
e 140 10 32.0
e 140 161 58.0
e 140 134 82.0
e 140 317 45.0
e 140 291 78.0
e 140 175 86.0
e 140 214 47.0
e 140 293 55.0
e 140 70 61.0
e 140 307 73.0
e 140 223 92.0
e 140 316 3.0
e 140 318 59.0
e 140 278 84.0
e 140 154 56.0
e 140 129 67.0
e 140 160 66.0
e 140 170 19.0
e 140 274 49.0
e 140 43 68.0
e 142 162 1.0
e 152 216 4.0
e 152 177 4.0
e 153 99 71.0
e 153 287 45.0
e 153 104 49.0
e 153 156 16.0
e 153 171 30.0
e 153 18 17.0
e 153 145 80.0
e 153 73 98.0
e 153 292 26.0
e 153 286 30.0
e 153 147 95.0
e 153 38 72.0
e 153 78 85.0
e 153 37 23.0
e 153 249 35.0
e 153 77 84.0
e 153 59 40.0
e 153 120 89.0
e 153 32 26.0
e 153 195 63.0
e 153 232 89.0
e 153 189 37.0
e 153 248 4.0
e 153 33 74.0
e 154 289 27.0
e 154 5 67.0
e 154 188 65.0
e 154 165 49.0
e 154 129 96.0
e 154 138 76.0
e 154 269 21.0
e 154 226 32.0
e 154 194 25.0
e 154 98 68.0
e 154 93 30.0
e 154 117 72.0
e 154 177 22.0
e 154 6 82.0
e 154 179 87.0
e 154 270 61.0
e 154 86 63.0
e 154 256 58.0
e 154 9 47.0
e 154 167 84.0
e 154 85 28.0
e 154 141 22.0
e 155 109 2.0
e 159 318 3.0
e 159 139 42.0
e 159 223 100.0
e 159 292 29.0
e 159 74 77.0
e 159 294 71.0
e 159 75 53.0
e 159 158 70.0
e 159 204 74.0
e 159 169 94.0
e 159 245 98.0
e 159 130 66.0
e 159 283 97.0
e 159 273 81.0
e 159 174 58.0
e 159 277 4.0
e 159 311 90.0
e 159 288 53.0
e 159 215 98.0
e 159 276 77.0
e 159 118 6.0
e 159 7 76.0
e 159 66 18.0
e 159 16 66.0
e 160 105 38.0
e 160 71 99.0
e 160 182 34.0
e 160 107 7.0
e 160 102 48.0
e 160 72 1.0
e 160 128 41.0
e 160 181 13.0
e 160 212 15.0
e 160 19 30.0
e 160 159 57.0
e 160 118 46.0
e 160 110 15.0
e 160 284 37.0
e 160 168 81.0
e 160 171 73.0
e 160 221 68.0
e 160 21 35.0
e 160 26 48.0
e 160 4 9.0
e 160 37 38.0
e 160 301 28.0
e 160 5 95.0
e 163 110 26.0
e 163 242 21.0
e 163 43 11.0
e 163 107 87.0
e 163 285 19.0
e 163 55 90.0
e 163 292 83.0
e 163 302 39.0
e 163 45 47.0
e 163 123 53.0
e 163 158 59.0
e 163 24 7.0
e 163 135 11.0
e 163 301 97.0
e 163 88 73.0
e 163 262 60.0
e 163 29 1.0
e 163 251 21.0
e 163 56 4.0
e 163 307 36.0
e 163 108 75.0
e 163 150 44.0
e 163 131 45.0
e 163 277 23.0
e 163 72 36.0
e 166 286 17.0
e 166 173 11.0
e 166 121 78.0
e 166 111 20.0
e 171 77 48.0
e 171 203 32.0
e 171 65 87.0
e 171 72 53.0
e 171 198 91.0
e 171 208 48.0
e 171 147 2.0
e 171 283 25.0
e 171 293 66.0
e 171 227 56.0
e 171 276 60.0
e 171 122 75.0
e 171 113 52.0
e 171 90 58.0
e 171 243 41.0
e 171 119 82.0
e 171 187 20.0
e 171 244 54.0
e 171 145 65.0
e 171 107 75.0
e 171 255 33.0
e 171 44 28.0
e 171 66 61.0
e 171 295 14.0
e 171 224 88.0
e 174 72 34.0
e 174 273 32.0
e 174 287 15.0
e 174 110 36.0
e 174 122 6.0
e 174 189 49.0
e 174 20 50.0
e 174 83 22.0
e 174 49 41.0
e 174 112 9.0
e 174 42 27.0
e 176 20 37.0
e 176 117 20.0
e 176 235 7.0
e 176 141 35.0
e 176 105 22.0
e 176 251 37.0
e 176 139 31.0
e 176 229 36.0
e 176 106 15.0
e 176 236 39.0
e 180 231 12.0
e 180 306 48.0
e 180 152 8.0
e 180 37 7.0
e 184 132 22.0
e 184 173 14.0
e 184 18 7.0
e 184 213 9.0
e 184 315 16.0
e 184 91 74.0
e 192 177 39.0
e 192 311 33.0
e 192 0 13.0
e 192 73 5.0
e 192 52 44.0
e 192 35 48.0
e 192 19 17.0
e 192 4 34.0
e 192 104 86.0
e 192 9 22.0
e 192 283 24.0
e 197 25 3.0
e 197 176 37.0
e 197 228 5.0
e 197 88 9.0
e 215 241 16.0
e 219 244 61.0
e 219 144 97.0
e 219 110 58.0
e 219 222 90.0
e 219 190 64.0
e 219 165 100.0
e 219 174 100.0
e 219 8 93.0
e 219 57 57.0
e 219 313 19.0
e 219 90 49.0
e 219 151 38.0
e 219 185 77.0
e 219 292 51.0
e 219 212 5.0
e 219 247 67.0
e 219 316 6.0
e 219 199 51.0
e 219 291 28.0
e 219 281 25.0
e 219 197 12.0
e 219 220 11.0
e 219 28 2.0
e 219 40 13.0
e 222 0 53.0
e 222 104 28.0
e 222 135 90.0
e 222 147 76.0
e 222 188 57.0
e 222 295 40.0
e 222 216 51.0
e 222 3 78.0
e 222 10 35.0
e 222 132 11.0
e 222 286 22.0
e 222 60 9.0
e 222 178 69.0
e 222 180 46.0
e 222 228 68.0
e 222 133 82.0
e 222 249 76.0
e 222 158 51.0
e 222 214 53.0
e 222 203 67.0
e 222 187 20.0
e 222 165 34.0
e 222 143 45.0
e 222 76 27.0
e 222 151 11.0
e 224 302 1.0
e 236 127 14.0
e 236 95 19.0
e 236 215 17.0
e 236 142 43.0
e 236 106 58.0
e 236 101 91.0
e 236 74 22.0
e 236 263 66.0
e 236 12 13.0
e 236 249 24.0
e 236 308 90.0
e 236 128 62.0
e 236 119 70.0
e 236 183 67.0
e 236 256 85.0
e 236 172 36.0
e 236 289 6.0
e 236 173 51.0
e 236 220 44.0
e 236 224 88.0
e 236 140 37.0
e 236 71 23.0
e 236 75 51.0
e 236 16 23.0
e 236 27 97.0
e 237 286 51.0
e 237 308 44.0
e 237 107 14.0
e 237 305 90.0
e 237 5 91.0
e 237 187 71.0
e 237 265 46.0
e 237 194 57.0
e 237 252 87.0
e 237 142 99.0
e 237 86 40.0
e 237 163 17.0
e 237 35 30.0
e 237 122 80.0
e 237 13 78.0
e 237 45 30.0
e 237 126 70.0
e 237 238 6.0
e 237 30 77.0
e 237 232 28.0
e 237 127 14.0
e 237 55 63.0
e 237 120 13.0
e 237 210 33.0
e 237 188 77.0
e 237 314 80.0
e 238 259 17.0
e 238 122 20.0
e 238 102 3.0
e 238 263 4.0
e 241 163 42.0
e 241 181 19.0
e 245 56 20.0
e 245 59 68.0
e 245 224 86.0
e 245 227 66.0
e 245 23 70.0
e 245 299 77.0
e 245 104 57.0
e 245 64 24.0
e 245 44 98.0
e 245 136 69.0
e 245 314 45.0
e 245 98 88.0
e 245 305 89.0
e 245 114 77.0
e 245 295 99.0
e 245 135 64.0
e 245 303 40.0
e 245 156 39.0
e 245 316 13.0
e 245 263 37.0
e 246 274 1.0
e 248 249 14.0
e 248 106 24.0
e 248 96 11.0
e 253 129 13.0
e 253 25 5.0
e 254 118 18.0
e 254 255 23.0
e 254 167 13.0
e 254 244 8.0
e 254 210 6.0
e 254 234 11.0
e 254 211 18.0
e 258 302 5.0
e 258 39 14.0
e 258 291 7.0
e 260 42 2.0
e 260 206 1.0
e 260 279 12.0
e 260 271 11.0
e 260 143 10.0
e 264 204 93.0
e 264 145 94.0
e 264 57 76.0
e 264 292 56.0
e 264 250 88.0
e 264 212 41.0
e 264 316 45.0
e 264 247 99.0
e 264 251 59.0
e 264 81 88.0
e 264 86 80.0
e 264 41 75.0
e 264 127 9.0
e 264 286 7.0
e 264 213 49.0
e 264 101 37.0
e 264 274 69.0
e 264 109 60.0
e 264 191 20.0
e 264 10 14.0
e 264 219 78.0
e 275 113 2.0
e 277 155 11.0
e 277 10 50.0
e 277 44 37.0
e 277 156 31.0
e 277 265 48.0
e 277 111 47.0
e 277 56 82.0
e 277 169 17.0
e 277 244 3.0
e 277 75 7.0
e 277 62 21.0
e 277 255 45.0
e 277 141 8.0
e 277 38 52.0
e 277 76 40.0
e 277 60 49.0
e 277 295 52.0
e 277 124 41.0
e 277 236 91.0
e 277 47 9.0
e 277 15 73.0
e 277 132 92.0
e 277 48 60.0
e 277 63 14.0
e 277 66 19.0
e 282 78 22.0
e 282 252 7.0
e 282 134 18.0
e 282 246 17.0
e 282 270 12.0
e 282 163 57.0
e 288 91 68.0
e 288 161 47.0
e 288 156 84.0
e 288 67 81.0
e 288 315 94.0
e 288 266 64.0
e 288 284 24.0
e 288 107 32.0
e 288 251 100.0
e 288 75 67.0
e 288 124 68.0
e 288 31 45.0
e 288 113 97.0
e 288 300 93.0
e 288 253 14.0
e 288 286 70.0
e 288 257 4.0
e 288 221 64.0
e 288 305 10.0
e 288 258 97.0
e 288 296 17.0
e 288 140 84.0
e 288 303 27.0
e 288 246 2.0
e 289 106 21.0
e 290 214 11.0
e 290 315 2.0
e 290 211 9.0
e 293 80 44.0
e 293 155 40.0
e 293 141 3.0
e 293 184 49.0
e 293 156 29.0
e 293 27 12.0
e 293 304 24.0
e 293 201 8.0
e 293 96 38.0
e 296 12 48.0
e 296 257 80.0
e 296 211 79.0
e 296 11 59.0
e 296 48 91.0
e 296 13 58.0
e 296 157 18.0
e 296 124 78.0
e 296 61 70.0
e 296 58 46.0
e 296 193 52.0
e 296 53 93.0
e 296 313 89.0
e 296 51 9.0
e 296 262 22.0
e 296 177 69.0
e 296 69 25.0
e 296 70 29.0
e 296 68 20.0
e 296 88 29.0
e 296 292 25.0
e 296 76 75.0
e 296 244 42.0
e 297 12 1.0
e 298 155 86.0
e 298 247 14.0
e 298 253 22.0
e 298 19 35.0
e 298 227 99.0
e 298 63 29.0
e 298 308 3.0
e 298 136 40.0
e 298 58 43.0
e 298 250 18.0
e 298 106 12.0
e 298 182 12.0
e 298 93 44.0
e 298 91 96.0
e 298 48 95.0
e 298 294 79.0
e 298 309 86.0
e 298 314 90.0
e 298 85 31.0
e 298 11 8.0
e 298 234 20.0
e 298 209 9.0
e 298 129 79.0
e 298 114 76.0
e 298 8 56.0
e 298 310 60.0
e 301 318 84.0
e 301 198 34.0
e 301 238 43.0
e 301 256 11.0
e 301 275 38.0
e 301 27 55.0
e 301 257 45.0
e 301 71 90.0
e 301 243 57.0
e 301 84 42.0
e 301 18 36.0
e 301 312 82.0
e 301 242 81.0
e 301 41 4.0
e 301 178 52.0
e 301 48 81.0
e 301 128 24.0
e 301 100 83.0
e 301 156 13.0
e 301 190 48.0
e 301 233 42.0
e 301 315 72.0
e 301 173 100.0
e 306 207 38.0
e 306 133 31.0
e 306 238 22.0
e 306 77 52.0
e 306 1 80.0
e 306 210 12.0
e 306 264 84.0
e 306 93 96.0
e 306 30 8.0
e 306 151 63.0
e 306 181 59.0
e 306 196 68.0
e 306 277 44.0
e 306 253 66.0
e 306 44 41.0
e 306 63 82.0
e 306 256 55.0
e 306 281 48.0
e 306 89 97.0
e 306 87 56.0
e 306 226 23.0
e 306 134 84.0
e 306 237 31.0
e 313 34 9.0
e 317 258 5.0
e 319 195 4.0
